r1_10_2

VEHICLE
NUMBER   CAPACITY
250     200

CUSTOMER
CUST NO. XCOORD.  YCOORD.  DEMAND  READY TIME DUE DATE  SERVICE TIME

0   250    250     0     0    1925     0
196 487 320 21 868 878 10
716 495 355 3 1253 1263 10
906 499 316 18 0 1658 10
570 433 319 11 0 1720 10
557 479 387 13 407 417 10
219 491 369 28 0 1647 10
152 453 360 13 230 240 10
872 451 305 13 208 218 10
555 423 315 12 0 1731 10
939 478 300 12 0 1682 10
370 489 338 17 1407 1417 10
347 486 324 15 0 1668 10
304 475 352 33 0 1668 10
536 460 328 13 229 239 10
188 453 318 30 384 394 10
438 497 296 14 623 633 10
764 490 286 29 0 1673 10
861 492 326 19 1214 1224 10
910 468 360 16 284 294 10
186 428 302 27 1026 1036 10
954 468 352 9 778 788 10
215 492 335 10 0 1659 10
803 471 368 19 0 1665 10
874 465 367 14 0 1671 10
789 466 362 15 0 1672 10
